Results/Experiment 2 Results/New Benchmark/output_p1_0.25_p2_0.00_n_40_13.lp
clingo version 5.4.0
Reading from tempSRTISolver.lp ...
Solving...
Answer: 1
matched(6,4) matched(8,5) matched(1,7) matched(5,8) matched(11,10) matched(10,11) matched(9,12) matched(17,16) matched(14,18) matched(15,19) matched(20,13) matched(22,23) matched(28,25) matched(25,28) matched(31,30) matched(30,31) matched(32,29) matched(36,34) matched(38,39) matched(40,33) matched(2,3) matched(4,6) matched(12,9) matched(18,14) matched(19,15) matched(13,20) matched(23,22) matched(37,35) matched(39,38) matched(33,40) matched(3,2) matched(26,24) matched(24,26) matched(27,21) matched(29,32) matched(34,36) matched(35,37) matched(7,1) matched(16,17) matched(21,27)
Optimization: 434
Answer: 2
matched(6,4) matched(8,5) matched(1,7) matched(5,8) matched(11,10) matched(10,11) matched(9,12) matched(17,16) matched(14,18) matched(15,19) matched(20,13) matched(27,23) matched(28,25) matched(25,28) matched(31,30) matched(30,31) matched(32,29) matched(36,34) matched(38,39) matched(40,33) matched(2,3) matched(4,6) matched(12,9) matched(18,14) matched(19,15) matched(13,20) matched(26,22) matched(37,35) matched(39,38) matched(33,40) matched(3,2) matched(21,24) matched(22,26) matched(24,21) matched(29,32) matched(34,36) matched(35,37) matched(7,1) matched(16,17) matched(23,27)
Optimization: 416
Answer: 3
matched(6,4) matched(8,5) matched(1,7) matched(5,8) matched(11,10) matched(10,11) matched(9,12) matched(17,16) matched(14,18) matched(15,19) matched(20,13) matched(22,23) matched(24,25) matched(21,28) matched(31,30) matched(30,31) matched(32,29) matched(36,34) matched(38,39) matched(40,33) matched(2,3) matched(4,6) matched(12,9) matched(18,14) matched(19,15) matched(13,20) matched(23,22) matched(37,35) matched(39,38) matched(33,40) matched(3,2) matched(25,24) matched(27,26) matched(28,21) matched(29,32) matched(34,36) matched(35,37) matched(7,1) matched(16,17) matched(26,27)
Optimization: 412
Answer: 4
matched(6,4) matched(8,5) matched(1,7) matched(5,8) matched(11,10) matched(10,11) matched(9,12) matched(17,16) matched(14,18) matched(15,19) matched(20,13) matched(25,23) matched(23,25) matched(21,28) matched(31,30) matched(30,31) matched(32,29) matched(36,34) matched(38,39) matched(40,33) matched(2,3) matched(4,6) matched(12,9) matched(18,14) matched(19,15) matched(13,20) matched(24,22) matched(37,35) matched(39,38) matched(33,40) matched(3,2) matched(22,24) matched(27,26) matched(28,21) matched(29,32) matched(34,36) matched(35,37) matched(7,1) matched(16,17) matched(26,27)
Optimization: 409
Answer: 5
matched(5,4) matched(4,5) matched(3,7) matched(1,8) matched(11,10) matched(10,11) matched(9,12) matched(18,16) matched(16,18) matched(13,19) matched(19,13) matched(25,23) matched(23,25) matched(21,28) matched(32,30) matched(29,31) matched(31,29) matched(38,34) matched(35,39) matched(40,33) matched(7,3) matched(2,6) matched(12,9) matched(15,14) matched(14,15) matched(17,20) matched(24,22) matched(39,35) matched(34,38) matched(33,40) matched(6,2) matched(22,24) matched(27,26) matched(28,21) matched(30,32) matched(37,36) matched(36,37) matched(8,1) matched(20,17) matched(26,27)
Optimization: 406
Answer: 6
matched(1,4) matched(8,5) matched(3,7) matched(5,8) matched(9,10) matched(12,11) matched(11,12) matched(17,16) matched(14,18) matched(15,19) matched(20,13) matched(25,23) matched(23,25) matched(21,28) matched(31,30) matched(30,31) matched(32,29) matched(36,34) matched(38,39) matched(40,33) matched(7,3) matched(2,6) matched(10,9) matched(18,14) matched(19,15) matched(13,20) matched(24,22) matched(37,35) matched(39,38) matched(33,40) matched(6,2) matched(22,24) matched(27,26) matched(28,21) matched(29,32) matched(34,36) matched(35,37) matched(4,1) matched(16,17) matched(26,27)
Optimization: 393
Answer: 7
matched(1,4) matched(8,5) matched(3,7) matched(5,8) matched(9,10) matched(12,11) matched(11,12) matched(14,16) matched(19,18) matched(18,19) matched(20,13) matched(25,23) matched(23,25) matched(21,28) matched(31,30) matched(30,31) matched(32,29) matched(36,34) matched(38,39) matched(40,33) matched(7,3) matched(2,6) matched(10,9) matched(16,14) matched(17,15) matched(13,20) matched(24,22) matched(37,35) matched(39,38) matched(33,40) matched(6,2) matched(22,24) matched(27,26) matched(28,21) matched(29,32) matched(34,36) matched(35,37) matched(4,1) matched(15,17) matched(26,27)
Optimization: 383
Answer: 8
matched(1,4) matched(8,5) matched(3,7) matched(5,8) matched(9,10) matched(12,11) matched(11,12) matched(14,16) matched(19,18) matched(18,19) matched(20,13) matched(25,23) matched(23,25) matched(21,28) matched(32,30) matched(29,31) matched(31,29) matched(36,34) matched(38,39) matched(40,33) matched(7,3) matched(2,6) matched(10,9) matched(16,14) matched(17,15) matched(13,20) matched(24,22) matched(37,35) matched(39,38) matched(33,40) matched(6,2) matched(22,24) matched(27,26) matched(28,21) matched(30,32) matched(34,36) matched(35,37) matched(4,1) matched(15,17) matched(26,27)
Optimization: 376
Answer: 9
matched(5,4) matched(4,5) matched(3,7) matched(1,8) matched(9,10) matched(12,11) matched(11,12) matched(14,16) matched(19,18) matched(18,19) matched(20,13) matched(25,23) matched(23,25) matched(21,28) matched(32,30) matched(29,31) matched(31,29) matched(36,34) matched(38,39) matched(40,33) matched(7,3) matched(2,6) matched(10,9) matched(16,14) matched(17,15) matched(13,20) matched(24,22) matched(37,35) matched(39,38) matched(33,40) matched(6,2) matched(22,24) matched(27,26) matched(28,21) matched(30,32) matched(34,36) matched(35,37) matched(8,1) matched(15,17) matched(26,27)
Optimization: 374
OPTIMUM FOUND

Models       : 9
  Optimum    : yes
Optimization : 374
Calls        : 1
Time         : 0.438s (Solving: 0.10s 1st Model: 0.00s Unsat: 0.02s)
CPU Time     : 0.435s
